; benchmark generated from python API
(set-info :status unknown)
(declare-datatypes ((RealState 0)) (((RMk1 (rval1 Real)) (RMk2 (rval2 Real)))))
 (assert
 (forall ((|v11:0| Real) )(exists ((|v10:1_st| RealState) (val!1962 Real) )(forall ((|v9:2| Real) )(exists ((|v8:3_st| RealState) (val!1963 Real) )(forall ((|v7:4| Real) )(exists ((|v6:5_st| RealState) (val!1964 Real) )(forall ((|v5:6| Real) )(exists ((|v4:7_st| RealState) (val!1965 Real) )(forall ((|v3:8| Real) )(exists ((|v2:9_st| RealState) (val!1966 Real) )(forall ((|v1:10| Real) )(exists ((|v0:11_st| RealState) (val!1967 Real) )(let ((?x2198 (- 14.0)))
 (let ((?x264 (rval2 |v0:11_st|)))
 (let ((?x2152 (* 6.0 ?x264)))
 (let ((?x283 (+ (+ (+ (* (- 17.0) |v5:6|) (* 4.0 |v11:0|)) (* 13.0 |v3:8|)) ?x2152)))
 (let ((?x2517 (rval2 |v6:5_st|)))
 (let ((?x812 (* 15.0 ?x2517)))
 (let ((?x261 (rval2 |v10:1_st|)))
 (let ((?x1736 (* 19.0 ?x261)))
 (let ((?x1543 (+ (+ (+ (* (- 10.0) (rval2 |v8:3_st|)) (* (- 7.0) |v11:0|)) ?x1736) ?x812)))
 (let ((?x944 (- 1.0)))
 (let ((?x1224 (- 15.0)))
 (let ((?x1817 (* ?x1224 |v9:2|)))
 (let ((?x1407 (+ (+ (+ (* (- 16.0) |v7:4|) (* 2.0 (rval2 |v8:3_st|))) (* 14.0 ?x2517)) ?x1817)))
 (let ((?x463 (- 19.0)))
 (let ((?x1299 (* 3.0 |v5:6|)))
 (let ((?x842 (+ (+ (+ (* 0.0 |v11:0|) (* (- 5.0) |v5:6|)) (* 0.0 ?x2517)) ?x1299)))
 (let (($x2543 (or (or (<= ?x842 ?x463) (<= ?x1407 ?x944)) (and (<= ?x1543 5.0) (<= ?x283 ?x2198)))))
 (let ((?x84 (- 13.0)))
 (let ((?x672 (* ?x944 |v1:10|)))
 (let ((?x962 (+ (+ (+ (* (- 18.0) |v11:0|) (* (- 18.0) |v5:6|)) (* 3.0 |v9:2|)) ?x672)))
 (let ((?x592 (* 2.0 |v9:2|)))
 (let ((?x612 (+ (+ (+ (* (- 5.0) ?x264) (* (- 12.0) (rval2 |v2:9_st|))) ?x592) (* (- 16.0) ?x2517))))
 (let ((?x1717 (- 5.0)))
 (let ((?x1433 (* ?x1717 |v11:0|)))
 (let ((?x20 (+ (+ (+ (* (- 18.0) |v7:4|) (* (- 8.0) (rval2 |v2:9_st|))) |v1:10|) ?x1433)))
 (let ((?x1918 (* 19.0 |v7:4|)))
 (let ((?x881 (+ (+ (+ (* 14.0 |v5:6|) (* 0.0 |v9:2|)) (* 10.0 (rval2 |v2:9_st|))) ?x1918)))
 (let ((?x50 (- 6.0)))
 (let ((?x819 (+ (+ (+ ?x812 (* (- 4.0) (rval2 |v8:3_st|))) (* (- 3.0) |v5:6|)) (* 14.0 (rval2 |v8:3_st|)))))
 (let ((?x2156 (- 7.0)))
 (let ((?x599 (* ?x2156 |v7:4|)))
 (let ((?x55 (+ (+ (+ (* (- 10.0) |v9:2|) (* 14.0 |v11:0|)) (* 5.0 |v7:4|)) ?x599)))
 (let (($x757 (and (or (<= ?x55 12.0) (<= ?x819 ?x50)) (or (<= ?x881 6.0) (<= ?x20 14.0)))))
 (let ((?x2744 (- 16.0)))
 (let ((?x1947 (- 9.0)))
 (let ((?x1427 (* ?x1947 |v11:0|)))
 (let ((?x992 (+ (+ (+ (* ?x50 |v11:0|) (* (- 2.0) ?x261)) (* (- 18.0) ?x2517)) ?x1427)))
 (let ((?x1696 (+ (+ (+ (* 9.0 |v3:8|) (* (- 18.0) ?x264)) (* ?x84 (rval2 |v4:7_st|))) (* 17.0 |v9:2|))))
 (let ((?x948 (+ (+ (+ (* 0.0 |v9:2|) (* 8.0 ?x2517)) (* ?x50 |v5:6|)) (* (- 17.0) (rval2 |v2:9_st|)))))
 (let ((?x1415 (* 9.0 ?x264)))
 (let ((?x1470 (+ (+ (+ (* ?x50 ?x264) (* ?x2156 (rval2 |v4:7_st|))) (* ?x944 (rval2 |v2:9_st|))) ?x1415)))
 (let (($x303 (and (or (<= ?x1470 19.0) (<= ?x948 11.0)) (or (<= ?x1696 13.0) (<= ?x992 ?x2744)))))
 (let ((?x1064 (* 8.0 ?x2517)))
 (let ((?x2303 (+ (+ (* (- 10.0) |v9:2|) (* (- 18.0) (rval2 |v8:3_st|))) (* (- 4.0) |v1:10|))))
 (let (($x648 (<= (+ (+ (+ (* 12.0 |v3:8|) (* 6.0 |v1:10|)) ?x1064) (* 19.0 ?x264)) 19.0)))
 (let ((?x368 (* 14.0 |v7:4|)))
 (let ((?x124 (+ (+ (+ (* (- 20.0) |v5:6|) (* (- 12.0) ?x264)) (* 13.0 |v11:0|)) ?x368)))
 (let ((?x717 (- 18.0)))
 (let ((?x2207 (* ?x84 |v11:0|)))
 (let (($x2745 (<= (+ (+ (+ (* 14.0 ?x261) ?x2207) (* ?x463 (rval2 |v2:9_st|))) ?x2207) ?x717)))
 (let (($x1725 (and (and $x2745 (<= ?x124 2.0)) (and $x648 (<= (+ ?x2303 ?x1064) ?x50)))))
 (let ((?x2697 (* 16.0 ?x264)))
 (let ((?x17 (+ (+ (+ (* (- 10.0) |v11:0|) (* 2.0 (rval2 |v4:7_st|))) (* 9.0 ?x261)) ?x2697)))
 (let ((?x2610 (+ (+ (+ (* 13.0 |v9:2|) (* ?x1224 |v1:10|)) (* (- 17.0) |v1:10|)) (* 5.0 |v1:10|))))
 (let ((?x1260 (* 18.0 |v5:6|)))
 (let (($x1034 (<= (+ (+ (+ (* ?x2198 |v11:0|) (* ?x717 |v5:6|)) (* 12.0 |v9:2|)) ?x1260) ?x944)))
 (let (($x2836 (<= (+ (+ (+ (* ?x1224 |v3:8|) ?x592) (* 18.0 ?x261)) (* 9.0 |v7:4|)) ?x1224)))
 (let (($x784 (and (or (and $x2836 $x1034) (and (<= ?x2610 0.0) (<= ?x17 ?x1947))) $x1725)))
 (let (($x1148 (and (and $x784 (and $x303 $x757)) (or (<= ?x612 19.0) (and (<= ?x962 ?x84) $x2543)))))
 (let ((?x981 (+ (+ (+ (* 6.0 ?x2517) (* 3.0 |v7:4|)) (* (- 12.0) (rval2 |v8:3_st|))) (* ?x2156 |v5:6|))))
 (let ((?x1877 (+ (+ (+ (* (- 3.0) (rval2 |v2:9_st|)) (* ?x2198 |v9:2|)) (* 6.0 |v9:2|)) (* 14.0 (rval2 |v2:9_st|)))))
 (let ((?x706 (+ (+ (+ (* 9.0 |v9:2|) (* (- 4.0) (rval2 |v8:3_st|))) (* ?x50 ?x261)) (* 12.0 (rval2 |v8:3_st|)))))
 (let ((?x441 (- 17.0)))
 (let ((?x1544 (* 3.0 ?x2517)))
 (let ((?x1914 (rval2 |v8:3_st|)))
 (let ((?x2817 (* 17.0 ?x1914)))
 (let (($x1525 (<= (+ (+ (+ (* 17.0 ?x261) (* (- 11.0) (rval2 |v2:9_st|))) ?x2817) ?x1544) ?x441)))
 (let ((?x53 (+ (+ (* (- 11.0) ?x1914) (* (- 4.0) (rval2 |v4:7_st|))) (* 20.0 |v1:10|))))
 (let ((?x1159 (+ (+ (+ (* (- 2.0) ?x2517) (* 17.0 ?x2517)) (* ?x1947 ?x264)) (* 5.0 (rval2 |v4:7_st|)))))
 (let ((?x446 (+ (+ (+ (* 14.0 ?x2517) (* (- 11.0) |v7:4|)) (* ?x717 (rval2 |v2:9_st|))) (* 5.0 |v9:2|))))
 (let ((?x2953 (+ (+ (+ (* ?x944 (rval2 |v4:7_st|)) ?x1817) (* (- 4.0) |v9:2|)) (* ?x944 ?x261))))
 (let (($x1405 (and (and (<= ?x2953 ?x441) (<= ?x446 ?x717)) (or (<= ?x1159 8.0) (<= (+ ?x53 (* ?x2744 ?x264)) ?x1947)))))
 (let (($x377 (or $x1405 (or (or $x1525 (<= ?x706 ?x1224)) (and (<= ?x1877 ?x717) (<= ?x981 9.0))))))
 (let ((?x2060 (* 7.0 |v9:2|)))
 (let ((?x2584 (+ (+ (+ (* (- 20.0) |v5:6|) (* 0.0 |v1:10|)) (* (- 11.0) |v1:10|)) ?x2060)))
 (let ((?x515 (- 4.0)))
 (let ((?x2284 (+ (+ (+ (* ?x1717 ?x264) (* 8.0 (rval2 |v2:9_st|))) (* ?x2744 ?x1914)) (* ?x1717 ?x261))))
 (let ((?x326 (rval2 |v2:9_st|)))
 (let ((?x291 (- 8.0)))
 (let ((?x2669 (* ?x291 ?x326)))
 (let ((?x1965 (+ (+ (+ (* 14.0 |v11:0|) (* 10.0 (rval2 |v4:7_st|))) (* ?x1947 |v3:8|)) ?x2669)))
 (let ((?x433 (+ (+ (+ (* (- 11.0) |v5:6|) (* (- 20.0) ?x2517)) (* 14.0 |v3:8|)) ?x1433)))
 (let ((?x1058 (+ (+ (+ (* 16.0 |v9:2|) (* 18.0 |v11:0|)) (* 11.0 |v5:6|)) (* (- 12.0) ?x261))))
 (let (($x1089 (or (or (<= ?x1058 17.0) (<= ?x433 6.0)) (and (<= ?x1965 15.0) (<= ?x2284 ?x515)))))
 (let ((?x1567 (* 7.0 |v11:0|)))
 (let ((?x1087 (+ (+ (+ (* 0.0 ?x1914) (* (- 20.0) |v3:8|)) (* 18.0 (rval2 |v4:7_st|))) ?x1567)))
 (let ((?x1833 (- 11.0)))
 (let ((?x1990 (+ (+ (+ (* ?x1224 ?x261) (* 0.0 ?x1914)) (* 18.0 |v7:4|)) (* ?x2744 ?x326))))
 (let ((?x2763 (* ?x1717 ?x264)))
 (let (($x2451 (<= (+ (+ (+ (* (- 2.0) |v3:8|) (* ?x1224 |v7:4|)) (* ?x1224 |v1:10|)) ?x2763) 5.0)))
 (let ((?x1135 (+ (+ (+ (* 5.0 ?x1914) (* (- 10.0) (rval2 |v4:7_st|))) (* 18.0 ?x261)) (* 0.0 ?x261))))
 (let (($x1533 (and (or (and (<= ?x1135 ?x944) $x2451) (or (<= ?x1990 ?x1833) (<= ?x1087 ?x2744))) $x1089)))
 (let (($x2129 (<= (+ (+ (+ ?x1427 (* 17.0 ?x2517)) (* 14.0 |v9:2|)) (* 0.0 |v5:6|)) 9.0)))
 (let (($x2248 (and (<= (+ (+ (+ (* 20.0 |v11:0|) (* ?x717 ?x326)) |v3:8|) ?x599) ?x944) $x2129)))
 (let (($x1528 (<= (+ (+ (+ (* 11.0 (rval2 |v4:7_st|)) ?x326) (* 4.0 |v11:0|)) ?x2060) ?x1833)))
 (let ((?x2946 (+ (+ (+ (* ?x944 ?x2517) (* ?x1224 |v5:6|)) (* 6.0 ?x1914)) (* 19.0 ?x1914))))
 (let ((?x1511 (* 6.0 ?x1914)))
 (let (($x2251 (<= (+ (+ (+ (* 5.0 |v3:8|) (* 11.0 |v11:0|)) (* ?x1833 ?x1914)) ?x1511) 1.0)))
 (let (($x670 (<= (+ (+ (+ (* (- 12.0) |v5:6|) ?x672) (* 8.0 ?x261)) (* ?x50 |v11:0|)) ?x2744)))
 (let (($x965 (<= (+ (+ (+ ?x1817 (* 14.0 |v1:10|)) (* 7.0 ?x326)) (* 18.0 ?x326)) 1.0)))
 (let ((?x832 (- 12.0)))
 (let ((?x2611 (* ?x1833 |v3:8|)))
 (let (($x660 (<= (+ (+ (+ (* 14.0 |v9:2|) (* 2.0 |v3:8|)) (* 10.0 ?x261)) ?x2611) ?x832)))
 (let (($x1284 (or (or (or $x660 $x965) (or $x670 $x2251)) (or (or (<= ?x2946 14.0) $x1528) $x2248))))
 (let (($x1423 (not (= |v0:11_st| (RMk1 val!1967)))))
 (let (($x937 (not (= |v2:9_st| (RMk1 val!1966)))))
 (let (($x1277 (not (= |v4:7_st| (RMk1 val!1965)))))
 (let (($x1151 (not (= |v6:5_st| (RMk1 val!1964)))))
 (let (($x1011 (not (= |v8:3_st| (RMk1 val!1963)))))
 (let (($x439 (not (= |v10:1_st| (RMk1 val!1962)))))
 (and $x439 $x1011 $x1151 $x1277 $x937 $x1423 (or (and (or $x1284 $x1533) (or (<= ?x2584 13.0) $x377)) $x1148)))))))))))))))))))))))))))))))))))))))))))))))))))))))))))))))))))))))))))))))))))))))))))))))))))))))))))))))))
 )
 )
 )
 )
 )
 )
 )
 )
 )
 )
 )
 )
(check-sat)
